# vtk DataFile Version 5.1
vtk output
ASCII
DATASET UNSTRUCTURED_GRID
POINTS 20 double
0 0 0 4 0 0 4 3 0 
0 3 0 1 0 0 2 0 0 
3 0 0 4 1 0 4 2 0 
3 3 0 2 3 0 1 3 0 
0 2 0 0 1 0 1 1 0 
1 2 0 2 1 0 2 2 0 
3 1 0 3 2 0 
CELLS 13 48
OFFSETS vtktypeint64
0 4 8 12 16 20 24 28 32 
36 40 44 48 
CONNECTIVITY vtktypeint64
0 4 14 13 13 14 15 12 12 
15 11 3 4 5 16 14 14 16 
17 15 15 17 10 11 5 6 18 
16 16 18 19 17 17 19 9 10 
6 1 7 18 18 7 8 19 19 
8 2 9 
CELL_TYPES 12
9
9
9
9
9
9
9
9
9
9
9
9

CELL_DATA 12
FIELD FieldData 7
B_Stress_n_p_m2 1 12 float
0.0882136 0.0883393 0.0882136 0.0881571 0.0884558 0.0881571 0.0880982 0.0885791 0.0880982 
0.0880432 0.0887021 0.0880432 
Froude 1 12 float
0.0319231 0.0319459 0.0319231 0.031913 0.031967 0.031913 0.0319024 0.0319894 0.0319024 
0.0318926 0.0320117 0.0318926 
Vel_Mag_m_p_s 1 12 float
0.0999726 0.100044 0.0999726 0.0999404 0.10011 0.0999404 0.0999069 0.100179 0.0999069 
0.0998755 0.100249 0.0998755 
Water_Depth_m 1 12 float
1.00004 1.00004 1.00004 1.00003 1.00003 1.00003 1.00002 1.00002 1.00002 
1.00001 1.00001 1.00001 
Water_Elev_m 1 12 float
1.00004 1.00004 1.00004 1.00003 1.00003 1.00003 1.00002 1.00002 1.00002 
1.00001 1.00001 1.00001 
Velocity_m_p_s 3 12 double
0.099972613156 7.1510679845e-05 0 0.10004382581 1.4988348019e-12 0 0.099972613156 -7.1510679845e-05 0 
0.099940396845 6.9495261414e-05 0 0.10010956228 1.7263739266e-12 0 0.099940396845 -6.9495261414e-05 0 
0.099906854331 6.4763007686e-05 0 0.10017918795 1.2796054364e-12 0 0.099906854331 -6.476300041e-05 0 
0.099875479937 3.8425019738e-05 0 0.10024855286 4.2630466214e-13 0 0.099875479937 -3.8425019738e-05 0 

ManningN 1 12 double
0.03 0.03 0.03 0.03 0.03 0.03 0.03 0.03 0.03 
0.03 0.03 0.03 
POINT_DATA 20
FIELD FieldData 1
Bed_Elev_m 1 20 double
0 0 0 0 0 0 0 0 0 
0 0 0 0 0 0 0 0 0 
0 0 
